row=12;
column=12;
Board=[|1,0,1,-1,-1,-1,0,0,-1,-1,-1,1|-1,0,1,-1,-1,1,-1,-1,-1,-1,0,0|-1,1,-1,0,1,-1,0,-1,-1,0,-1,1|1,-1,0,-1,0,0,-1,-1,0,-1,0,0|-1,-1,-1,-1,-1,-1,-1,-1,-1,1,0,-1|0,-1,-1,0,-1,0,0,-1,-1,0,-1,-1|-1,-1,0,-1,-1,-1,0,1,0,-1,1,-1|-1,1,0,0,-1,0,-1,0,1,1,-1,1|-1,-1,1,-1,1,0,1,1,0,-1,-1,1|1,0,0,1,-1,-1,0,-1,0,1,-1,0|-1,1,0,0,-1,-1,-1,0,1,-1,-1,1|0,1,1,0,-1,-1,1,0,-1,-1,1,-1|];
